10
0 56 24 26 7 40 6 20 38 36
56 0 36 41 62 42 53 41 46 34
24 36 0 8 31 41 20 23 21 12
26 41 8 0 33 49 20 30 14 10
7 62 31 33 0 41 13 23 45 43
40 42 41 49 41 0 43 21 62 51
6 53 20 20 13 43 0 22 32 30
20 41 23 30 23 21 22 0 44 35
38 46 21 14 45 62 32 44 0 12
36 34 12 10 43 51 30 35 12 0
0 0 500 0
1 10 33 1
2 20 48 2
3 30 59 3
4 40 60 2
5 50 78 1
6 60 83 1
7 70 100 3
8 80 108 2
9 90 116 2
